33 29 30 35 34 68 12 
98 92 86 38 97 56 2 
95 91 14 16 87 96 5 83 
71 8 10 32 50 
21 75 23 67 41 74 4 24 
72 69 19 46 100 
11 53 93 77 
42 61 99 18 6 
90 47 36 89 54 
65 20 81 55 1 
7 62 57 73 80 
85 45 44 84 94 59 13 26 
52 15 22 40 25 58 
63 88 49 60 17 
27 39 79 78 
28 37 76 51 3 70 31 
64 9 66 48 82 
43 

